
Gurobi 12.0.2 (win64, gurobi_cl) logging started Tue Jun  3 12:40:58 2025

Set parameter WLSAccessID
Set parameter WLSSecret
Set parameter LicenseID to value 2649137
Set parameter LogFile to value "gurobi.log"
Using license file c:\gurobi1202\gurobi.lic
Academic license 2649137 - for non-commercial use only - registered to ka___@stonybrook.edu

Gurobi 12.0.2 (win64, gurobi_cl) logging started Tue Jun  3 13:10:54 2025

Set parameter WLSAccessID
Set parameter WLSSecret
Set parameter LicenseID to value 2649137
Set parameter LogFile to value "gurobi.log"
Using license file c:\gurobi1202\gurobi.lic
Academic license 2649137 - for non-commercial use only - registered to ka___@stonybrook.edu

Gurobi 12.0.2 (win64, gurobi_cl) logging started Wed Jun  4 09:02:43 2025

Set parameter WLSAccessID
Set parameter WLSSecret
Set parameter LicenseID to value 2649137
Set parameter LogFile to value "gurobi.log"
Using license file c:\gurobi1202\gurobi.lic
Academic license 2649137 - for non-commercial use only - registered to ka___@stonybrook.edu
